 &inputpp
   prefix ='NANO'
   filplot='nanotube.charge'
   plot_num=0
   outdir = '/u/jeremyrutman/qe/bastien'
/
 &plot
   nfile = 1
   filepp(1) = 'nanotube.charge'
   weight(1) = 1.0
   iflag = 3
   output_format = 6
   fileout = 'nanotube.charge.density.dat'
/
