&CONTROL
    calculation='scf'
    restart_mode='from_scratch',
    pseudo_dir = '/u/jeremyrutman/qe/bastien',
    prefix='NANO'
    tprnfor = .true.
    max_seconds=82000
    outdir = '/u/jeremyrutman/qe/bastien'
/
&SYSTEM
    ibrav=8
    celldm(1)=40
    celldm(2)= 0.115981
    celldm(3)=1.00
    nat=28
    ntyp=1
    ecutwfc=60.0
    ecutrho=240
    input_dft='vdw-df-c09'
 /
 &ELECTRONS
    mixing_mode='local-TF'
    mixing_beta = 0.8
    conv_thr =  1.0d-7
 /
 &IONS
 /
 &CELL
 /
ATOMIC_SPECIES
C 12.0107 06-C.GGA.fhi.UPF

K_POINTS automatic
  1 8 1 0 0 0

ATOMIC_POSITIONS (angstrom)
C        4.533520557  -0.015659299   1.396325317
C        3.919311645  -0.015456942   2.674702484
C        1.735328192  -0.015034893   4.412842012
C        0.352415152  -0.015029285   4.727001312
C       -2.370427231  -0.015079345   4.108075934
C       -3.479923777  -0.015350707   3.225128349
C       -4.689970227  -0.015645017   0.709192007
C       -4.689970227  -0.015645017  -0.709192007
C       -3.479923777  -0.015350707  -3.225128349
C       -2.370427231  -0.015079345  -4.108075934
C        0.352415152  -0.015029285  -4.727001312
C        1.735328192  -0.015034893  -4.412842012
C        3.919311645  -0.015456942  -2.674702484
C        4.533520557  -0.015659299  -1.396325317
C        4.689958197   1.242479987   0.709151027
C        3.479923282   1.242771350   3.225129802
C        2.370436154   1.243047047   4.108073604
C       -0.352410957   1.243104677   4.727001544
C       -1.735318565   1.243101876   4.412843001
C       -3.919304281   1.242685638   2.674719353
C       -4.533538142   1.242485198   1.396305926
C       -4.533538142   1.242485198  -1.396305926
C       -3.919304281   1.242685638  -2.674719353
C       -1.735318565   1.243101876  -4.412843001
C       -0.352410957   1.243104677  -4.727001544
C        2.370436154   1.243047047  -4.108073604
C        3.479923282   1.242771350  -3.225129802
C        4.689958197   1.242479987  -0.709151027
