&CONTROL
    calculation='scf'
    restart_mode='from_scratch',
    pseudo_dir = './',
    prefix='NANO'
    tprnfor = .true.
    max_seconds=82000
    outdir = './'
/
&SYSTEM
    ibrav=8
    celldm(1)=40
    celldm(2)= 0.115981
    celldm(3)=1.00
    nat=6
    ntyp=1
    ecutwfc=60.0
    ecutrho=240
    input_dft='vdw-df-c09'
 /
 &ELECTRONS
    mixing_mode='local-TF'
    mixing_beta = 0.8
    conv_thr =  1.0d-7
 /
 &IONS
 /
 &CELL
 /
ATOMIC_SPECIES
C 12.0107 06-C.GGA.fhi.UPF

K_POINTS automatic
  1 4 1 0 0 0

ATOMIC_POSITIONS (angstrom)
C        1.0  2.0   3.0
C        2.0  3.0   4.0
C        3.0  4.0   5.0
C        4.0  5.0   6.0
C        4.0  5.0   6.4
C        4.0  5.0   6.6